(set-info :category "industrial")
(set-info :status sat)
(declare-fun x02 () (_ BitVec 8))
(declare-fun x03 () (_ BitVec 8))
(declare-fun x05 () (_ BitVec 8))
(declare-fun x06 () (_ BitVec 8))
(declare-fun x07 () (_ BitVec 8))
(declare-fun x08 () (_ BitVec 8))
(declare-fun x10 () (_ BitVec 8))
(declare-fun x11 () (_ BitVec 8))
(declare-fun x14 () (_ BitVec 8))
(declare-fun x15 () (_ BitVec 8))
(declare-fun x20 () (_ BitVec 8))
(declare-fun x21 () (_ BitVec 8))
(declare-fun x23 () (_ BitVec 8))
(declare-fun x24 () (_ BitVec 8))
(declare-fun x25 () (_ BitVec 8))
(declare-fun x28 () (_ BitVec 8))
(declare-fun x31 () (_ BitVec 8))
(declare-fun x32 () (_ BitVec 8))
(declare-fun x34 () (_ BitVec 8))
(declare-fun x38 () (_ BitVec 8))
(declare-fun x40 () (_ BitVec 8))
(declare-fun x42 () (_ BitVec 8))
(declare-fun x43 () (_ BitVec 8))
(declare-fun x44 () (_ BitVec 8))
(declare-fun x48 () (_ BitVec 8))
(declare-fun x50 () (_ BitVec 8))
(declare-fun x51 () (_ BitVec 8))
(declare-fun x52 () (_ BitVec 8))
(declare-fun x53 () (_ BitVec 8))
(declare-fun x55 () (_ BitVec 8))
(declare-fun x56 () (_ BitVec 8))
(declare-fun x57 () (_ BitVec 8))
(declare-fun x58 () (_ BitVec 8))
(declare-fun x62 () (_ BitVec 8))
(declare-fun x63 () (_ BitVec 8))
(declare-fun x64 () (_ BitVec 8))
(declare-fun x66 () (_ BitVec 8))
(declare-fun x67 () (_ BitVec 8))
(declare-fun x70 () (_ BitVec 8))
(declare-fun x71 () (_ BitVec 8))
(declare-fun x75 () (_ BitVec 8))
(declare-fun x76 () (_ BitVec 8))
(declare-fun x77 () (_ BitVec 8))
(declare-fun x81 () (_ BitVec 8))
(declare-fun x82 () (_ BitVec 8))
(declare-fun x83 () (_ BitVec 8))
(declare-fun x87 () (_ BitVec 8))
(assert (bvult x02 (_ bv9 8)))
(assert (bvult x03 (_ bv9 8)))
(assert (bvult x05 (_ bv9 8)))
(assert (bvult x06 (_ bv9 8)))
(assert (bvult x07 (_ bv9 8)))
(assert (bvult x08 (_ bv9 8)))
(assert (bvult x10 (_ bv9 8)))
(assert (bvult x11 (_ bv9 8)))
(assert (bvult x14 (_ bv9 8)))
(assert (bvult x15 (_ bv9 8)))
(assert (bvult x20 (_ bv9 8)))
(assert (bvult x21 (_ bv9 8)))
(assert (bvult x23 (_ bv9 8)))
(assert (bvult x24 (_ bv9 8)))
(assert (bvult x25 (_ bv9 8)))
(assert (bvult x28 (_ bv9 8)))
(assert (bvult x31 (_ bv9 8)))
(assert (bvult x32 (_ bv9 8)))
(assert (bvult x34 (_ bv9 8)))
(assert (bvult x38 (_ bv9 8)))
(assert (bvult x40 (_ bv9 8)))
(assert (bvult x42 (_ bv9 8)))
(assert (bvult x43 (_ bv9 8)))
(assert (bvult x44 (_ bv9 8)))
(assert (bvult x48 (_ bv9 8)))
(assert (bvult x50 (_ bv9 8)))
(assert (bvult x51 (_ bv9 8)))
(assert (bvult x52 (_ bv9 8)))
(assert (bvult x53 (_ bv9 8)))
(assert (bvult x55 (_ bv9 8)))
(assert (bvult x56 (_ bv9 8)))
(assert (bvult x57 (_ bv9 8)))
(assert (bvult x58 (_ bv9 8)))
(assert (bvult x62 (_ bv9 8)))
(assert (bvult x63 (_ bv9 8)))
(assert (bvult x64 (_ bv9 8)))
(assert (bvult x66 (_ bv9 8)))
(assert (bvult x67 (_ bv9 8)))
(assert (bvult x70 (_ bv9 8)))
(assert (bvult x71 (_ bv9 8)))
(assert (bvult x75 (_ bv9 8)))
(assert (bvult x76 (_ bv9 8)))
(assert (bvult x77 (_ bv9 8)))
(assert (bvult x81 (_ bv9 8)))
(assert (bvult x82 (_ bv9 8)))
(assert (bvult x83 (_ bv9 8)))
(assert (bvult x87 (_ bv9 8)))
(assert (not (= (_ bv6 8) (_ bv5 8))))
(assert (not (= (_ bv6 8) x02)))
(assert (not (= (_ bv6 8) x03)))
(assert (not (= (_ bv6 8) (_ bv2 8))))
(assert (not (= (_ bv6 8) x05)))
(assert (not (= (_ bv6 8) x06)))
(assert (not (= (_ bv6 8) x07)))
(assert (not (= (_ bv6 8) x08)))
(assert (not (= (_ bv5 8) x02)))
(assert (not (= (_ bv5 8) x03)))
(assert (not (= (_ bv5 8) (_ bv2 8))))
(assert (not (= (_ bv5 8) x05)))
(assert (not (= (_ bv5 8) x06)))
(assert (not (= (_ bv5 8) x07)))
(assert (not (= (_ bv5 8) x08)))
(assert (not (= x02 x03)))
(assert (not (= x02 (_ bv2 8))))
(assert (not (= x02 x05)))
(assert (not (= x02 x06)))
(assert (not (= x02 x07)))
(assert (not (= x02 x08)))
(assert (not (= x03 (_ bv2 8))))
(assert (not (= x03 x05)))
(assert (not (= x03 x06)))
(assert (not (= x03 x07)))
(assert (not (= x03 x08)))
(assert (not (= (_ bv2 8) x05)))
(assert (not (= (_ bv2 8) x06)))
(assert (not (= (_ bv2 8) x07)))
(assert (not (= (_ bv2 8) x08)))
(assert (not (= x05 x06)))
(assert (not (= x05 x07)))
(assert (not (= x05 x08)))
(assert (not (= x06 x07)))
(assert (not (= x06 x08)))
(assert (not (= x07 x08)))
(assert (not (= x10 x11)))
(assert (not (= x10 (_ bv1 8))))
(assert (not (= x10 (_ bv5 8))))
(assert (not (= x10 x14)))
(assert (not (= x10 x15)))
(assert (not (= x10 (_ bv4 8))))
(assert (not (= x10 (_ bv6 8))))
(assert (not (= x10 (_ bv7 8))))
(assert (not (= x11 (_ bv1 8))))
(assert (not (= x11 (_ bv5 8))))
(assert (not (= x11 x14)))
(assert (not (= x11 x15)))
(assert (not (= x11 (_ bv4 8))))
(assert (not (= x11 (_ bv6 8))))
(assert (not (= x11 (_ bv7 8))))
(assert (not (= (_ bv1 8) (_ bv5 8))))
(assert (not (= (_ bv1 8) x14)))
(assert (not (= (_ bv1 8) x15)))
(assert (not (= (_ bv1 8) (_ bv4 8))))
(assert (not (= (_ bv1 8) (_ bv6 8))))
(assert (not (= (_ bv1 8) (_ bv7 8))))
(assert (not (= (_ bv5 8) x14)))
(assert (not (= (_ bv5 8) x15)))
(assert (not (= (_ bv5 8) (_ bv4 8))))
(assert (not (= (_ bv5 8) (_ bv6 8))))
(assert (not (= (_ bv5 8) (_ bv7 8))))
(assert (not (= x14 x15)))
(assert (not (= x14 (_ bv4 8))))
(assert (not (= x14 (_ bv6 8))))
(assert (not (= x14 (_ bv7 8))))
(assert (not (= x15 (_ bv4 8))))
(assert (not (= x15 (_ bv6 8))))
(assert (not (= x15 (_ bv7 8))))
(assert (not (= (_ bv4 8) (_ bv6 8))))
(assert (not (= (_ bv4 8) (_ bv7 8))))
(assert (not (= (_ bv6 8) (_ bv7 8))))
(assert (not (= x20 x21)))
(assert (not (= x20 (_ bv8 8))))
(assert (not (= x20 x23)))
(assert (not (= x20 x24)))
(assert (not (= x20 x25)))
(assert (not (= x20 (_ bv5 8))))
(assert (not (= x20 (_ bv3 8))))
(assert (not (= x20 x28)))
(assert (not (= x21 (_ bv8 8))))
(assert (not (= x21 x23)))
(assert (not (= x21 x24)))
(assert (not (= x21 x25)))
(assert (not (= x21 (_ bv5 8))))
(assert (not (= x21 (_ bv3 8))))
(assert (not (= x21 x28)))
(assert (not (= (_ bv8 8) x23)))
(assert (not (= (_ bv8 8) x24)))
(assert (not (= (_ bv8 8) x25)))
(assert (not (= (_ bv8 8) (_ bv5 8))))
(assert (not (= (_ bv8 8) (_ bv3 8))))
(assert (not (= (_ bv8 8) x28)))
(assert (not (= x23 x24)))
(assert (not (= x23 x25)))
(assert (not (= x23 (_ bv5 8))))
(assert (not (= x23 (_ bv3 8))))
(assert (not (= x23 x28)))
(assert (not (= x24 x25)))
(assert (not (= x24 (_ bv5 8))))
(assert (not (= x24 (_ bv3 8))))
(assert (not (= x24 x28)))
(assert (not (= x25 (_ bv5 8))))
(assert (not (= x25 (_ bv3 8))))
(assert (not (= x25 x28)))
(assert (not (= (_ bv5 8) (_ bv3 8))))
(assert (not (= (_ bv5 8) x28)))
(assert (not (= (_ bv3 8) x28)))
(assert (not (= (_ bv1 8) x31)))
(assert (not (= (_ bv1 8) x32)))
(assert (not (= (_ bv1 8) (_ bv8 8))))
(assert (not (= (_ bv1 8) x34)))
(assert (not (= (_ bv1 8) (_ bv3 8))))
(assert (not (= (_ bv1 8) (_ bv7 8))))
(assert (not (= (_ bv1 8) (_ bv9 8))))
(assert (not (= (_ bv1 8) x38)))
(assert (not (= x31 x32)))
(assert (not (= x31 (_ bv8 8))))
(assert (not (= x31 x34)))
(assert (not (= x31 (_ bv3 8))))
(assert (not (= x31 (_ bv7 8))))
(assert (not (= x31 (_ bv9 8))))
(assert (not (= x31 x38)))
(assert (not (= x32 (_ bv8 8))))
(assert (not (= x32 x34)))
(assert (not (= x32 (_ bv3 8))))
(assert (not (= x32 (_ bv7 8))))
(assert (not (= x32 (_ bv9 8))))
(assert (not (= x32 x38)))
(assert (not (= (_ bv8 8) x34)))
(assert (not (= (_ bv8 8) (_ bv3 8))))
(assert (not (= (_ bv8 8) (_ bv7 8))))
(assert (not (= (_ bv8 8) (_ bv9 8))))
(assert (not (= (_ bv8 8) x38)))
(assert (not (= x34 (_ bv3 8))))
(assert (not (= x34 (_ bv7 8))))
(assert (not (= x34 (_ bv9 8))))
(assert (not (= x34 x38)))
(assert (not (= (_ bv3 8) (_ bv7 8))))
(assert (not (= (_ bv3 8) (_ bv9 8))))
(assert (not (= (_ bv3 8) x38)))
(assert (not (= (_ bv7 8) (_ bv9 8))))
(assert (not (= (_ bv7 8) x38)))
(assert (not (= (_ bv9 8) x38)))
(assert (not (= x40 (_ bv3 8))))
(assert (not (= x40 x42)))
(assert (not (= x40 x43)))
(assert (not (= x40 x44)))
(assert (not (= x40 (_ bv9 8))))
(assert (not (= x40 (_ bv1 8))))
(assert (not (= x40 (_ bv8 8))))
(assert (not (= x40 x48)))
(assert (not (= (_ bv3 8) x42)))
(assert (not (= (_ bv3 8) x43)))
(assert (not (= (_ bv3 8) x44)))
(assert (not (= (_ bv3 8) (_ bv9 8))))
(assert (not (= (_ bv3 8) (_ bv1 8))))
(assert (not (= (_ bv3 8) (_ bv8 8))))
(assert (not (= (_ bv3 8) x48)))
(assert (not (= x42 x43)))
(assert (not (= x42 x44)))
(assert (not (= x42 (_ bv9 8))))
(assert (not (= x42 (_ bv1 8))))
(assert (not (= x42 (_ bv8 8))))
(assert (not (= x42 x48)))
(assert (not (= x43 x44)))
(assert (not (= x43 (_ bv9 8))))
(assert (not (= x43 (_ bv1 8))))
(assert (not (= x43 (_ bv8 8))))
(assert (not (= x43 x48)))
(assert (not (= x44 (_ bv9 8))))
(assert (not (= x44 (_ bv1 8))))
(assert (not (= x44 (_ bv8 8))))
(assert (not (= x44 x48)))
(assert (not (= (_ bv9 8) (_ bv1 8))))
(assert (not (= (_ bv9 8) (_ bv8 8))))
(assert (not (= (_ bv9 8) x48)))
(assert (not (= (_ bv1 8) (_ bv8 8))))
(assert (not (= (_ bv1 8) x48)))
(assert (not (= (_ bv8 8) x48)))
(assert (not (= x50 x51)))
(assert (not (= x50 x52)))
(assert (not (= x50 x53)))
(assert (not (= x50 (_ bv7 8))))
(assert (not (= x50 x55)))
(assert (not (= x50 x56)))
(assert (not (= x50 x57)))
(assert (not (= x50 x58)))
(assert (not (= x51 x52)))
(assert (not (= x51 x53)))
(assert (not (= x51 (_ bv7 8))))
(assert (not (= x51 x55)))
(assert (not (= x51 x56)))
(assert (not (= x51 x57)))
(assert (not (= x51 x58)))
(assert (not (= x52 x53)))
(assert (not (= x52 (_ bv7 8))))
(assert (not (= x52 x55)))
(assert (not (= x52 x56)))
(assert (not (= x52 x57)))
(assert (not (= x52 x58)))
(assert (not (= x53 (_ bv7 8))))
(assert (not (= x53 x55)))
(assert (not (= x53 x56)))
(assert (not (= x53 x57)))
(assert (not (= x53 x58)))
(assert (not (= (_ bv7 8) x55)))
(assert (not (= (_ bv7 8) x56)))
(assert (not (= (_ bv7 8) x57)))
(assert (not (= (_ bv7 8) x58)))
(assert (not (= x55 x56)))
(assert (not (= x55 x57)))
(assert (not (= x55 x58)))
(assert (not (= x56 x57)))
(assert (not (= x56 x58)))
(assert (not (= x57 x58)))
(assert (not (= (_ bv9 8) (_ bv2 8))))
(assert (not (= (_ bv9 8) x62)))
(assert (not (= (_ bv9 8) x63)))
(assert (not (= (_ bv9 8) x64)))
(assert (not (= (_ bv9 8) (_ bv1 8))))
(assert (not (= (_ bv9 8) x66)))
(assert (not (= (_ bv9 8) x67)))
(assert (not (= (_ bv9 8) (_ bv6 8))))
(assert (not (= (_ bv2 8) x62)))
(assert (not (= (_ bv2 8) x63)))
(assert (not (= (_ bv2 8) x64)))
(assert (not (= (_ bv2 8) (_ bv1 8))))
(assert (not (= (_ bv2 8) x66)))
(assert (not (= (_ bv2 8) x67)))
(assert (not (= (_ bv2 8) (_ bv6 8))))
(assert (not (= x62 x63)))
(assert (not (= x62 x64)))
(assert (not (= x62 (_ bv1 8))))
(assert (not (= x62 x66)))
(assert (not (= x62 x67)))
(assert (not (= x62 (_ bv6 8))))
(assert (not (= x63 x64)))
(assert (not (= x63 (_ bv1 8))))
(assert (not (= x63 x66)))
(assert (not (= x63 x67)))
(assert (not (= x63 (_ bv6 8))))
(assert (not (= x64 (_ bv1 8))))
(assert (not (= x64 x66)))
(assert (not (= x64 x67)))
(assert (not (= x64 (_ bv6 8))))
(assert (not (= (_ bv1 8) x66)))
(assert (not (= (_ bv1 8) x67)))
(assert (not (= (_ bv1 8) (_ bv6 8))))
(assert (not (= x66 x67)))
(assert (not (= x66 (_ bv6 8))))
(assert (not (= x67 (_ bv6 8))))
(assert (not (= x70 x71)))
(assert (not (= x70 (_ bv4 8))))
(assert (not (= x70 (_ bv6 8))))
(assert (not (= x70 (_ bv5 8))))
(assert (not (= x70 x75)))
(assert (not (= x70 x76)))
(assert (not (= x70 x77)))
(assert (not (= x70 (_ bv9 8))))
(assert (not (= x71 (_ bv4 8))))
(assert (not (= x71 (_ bv6 8))))
(assert (not (= x71 (_ bv5 8))))
(assert (not (= x71 x75)))
(assert (not (= x71 x76)))
(assert (not (= x71 x77)))
(assert (not (= x71 (_ bv9 8))))
(assert (not (= (_ bv4 8) (_ bv6 8))))
(assert (not (= (_ bv4 8) (_ bv5 8))))
(assert (not (= (_ bv4 8) x75)))
(assert (not (= (_ bv4 8) x76)))
(assert (not (= (_ bv4 8) x77)))
(assert (not (= (_ bv4 8) (_ bv9 8))))
(assert (not (= (_ bv6 8) (_ bv5 8))))
(assert (not (= (_ bv6 8) x75)))
(assert (not (= (_ bv6 8) x76)))
(assert (not (= (_ bv6 8) x77)))
(assert (not (= (_ bv6 8) (_ bv9 8))))
(assert (not (= (_ bv5 8) x75)))
(assert (not (= (_ bv5 8) x76)))
(assert (not (= (_ bv5 8) x77)))
(assert (not (= (_ bv5 8) (_ bv9 8))))
(assert (not (= x75 x76)))
(assert (not (= x75 x77)))
(assert (not (= x75 (_ bv9 8))))
(assert (not (= x76 x77)))
(assert (not (= x76 (_ bv9 8))))
(assert (not (= x77 (_ bv9 8))))
(assert (not (= (_ bv7 8) x81)))
(assert (not (= (_ bv7 8) x82)))
(assert (not (= (_ bv7 8) x83)))
(assert (not (= (_ bv7 8) (_ bv9 8))))
(assert (not (= (_ bv7 8) (_ bv4 8))))
(assert (not (= (_ bv7 8) (_ bv2 8))))
(assert (not (= (_ bv7 8) x87)))
(assert (not (= (_ bv7 8) (_ bv1 8))))
(assert (not (= x81 x82)))
(assert (not (= x81 x83)))
(assert (not (= x81 (_ bv9 8))))
(assert (not (= x81 (_ bv4 8))))
(assert (not (= x81 (_ bv2 8))))
(assert (not (= x81 x87)))
(assert (not (= x81 (_ bv1 8))))
(assert (not (= x82 x83)))
(assert (not (= x82 (_ bv9 8))))
(assert (not (= x82 (_ bv4 8))))
(assert (not (= x82 (_ bv2 8))))
(assert (not (= x82 x87)))
(assert (not (= x82 (_ bv1 8))))
(assert (not (= x83 (_ bv9 8))))
(assert (not (= x83 (_ bv4 8))))
(assert (not (= x83 (_ bv2 8))))
(assert (not (= x83 x87)))
(assert (not (= x83 (_ bv1 8))))
(assert (not (= (_ bv9 8) (_ bv4 8))))
(assert (not (= (_ bv9 8) (_ bv2 8))))
(assert (not (= (_ bv9 8) x87)))
(assert (not (= (_ bv9 8) (_ bv1 8))))
(assert (not (= (_ bv4 8) (_ bv2 8))))
(assert (not (= (_ bv4 8) x87)))
(assert (not (= (_ bv4 8) (_ bv1 8))))
(assert (not (= (_ bv2 8) x87)))
(assert (not (= (_ bv2 8) (_ bv1 8))))
(assert (not (= x87 (_ bv1 8))))
(assert (not (= (_ bv6 8) x10)))
(assert (not (= (_ bv6 8) x20)))
(assert (not (= (_ bv6 8) (_ bv1 8))))
(assert (not (= (_ bv6 8) x40)))
(assert (not (= (_ bv6 8) x50)))
(assert (not (= (_ bv6 8) (_ bv9 8))))
(assert (not (= (_ bv6 8) x70)))
(assert (not (= (_ bv6 8) (_ bv7 8))))
(assert (not (= x10 x20)))
(assert (not (= x10 (_ bv1 8))))
(assert (not (= x10 x40)))
(assert (not (= x10 x50)))
(assert (not (= x10 (_ bv9 8))))
(assert (not (= x10 x70)))
(assert (not (= x10 (_ bv7 8))))
(assert (not (= x20 (_ bv1 8))))
(assert (not (= x20 x40)))
(assert (not (= x20 x50)))
(assert (not (= x20 (_ bv9 8))))
(assert (not (= x20 x70)))
(assert (not (= x20 (_ bv7 8))))
(assert (not (= (_ bv1 8) x40)))
(assert (not (= (_ bv1 8) x50)))
(assert (not (= (_ bv1 8) (_ bv9 8))))
(assert (not (= (_ bv1 8) x70)))
(assert (not (= (_ bv1 8) (_ bv7 8))))
(assert (not (= x40 x50)))
(assert (not (= x40 (_ bv9 8))))
(assert (not (= x40 x70)))
(assert (not (= x40 (_ bv7 8))))
(assert (not (= x50 (_ bv9 8))))
(assert (not (= x50 x70)))
(assert (not (= x50 (_ bv7 8))))
(assert (not (= (_ bv9 8) x70)))
(assert (not (= (_ bv9 8) (_ bv7 8))))
(assert (not (= x70 (_ bv7 8))))
(assert (not (= (_ bv5 8) x11)))
(assert (not (= (_ bv5 8) x21)))
(assert (not (= (_ bv5 8) x31)))
(assert (not (= (_ bv5 8) (_ bv3 8))))
(assert (not (= (_ bv5 8) x51)))
(assert (not (= (_ bv5 8) (_ bv2 8))))
(assert (not (= (_ bv5 8) x71)))
(assert (not (= (_ bv5 8) x81)))
(assert (not (= x11 x21)))
(assert (not (= x11 x31)))
(assert (not (= x11 (_ bv3 8))))
(assert (not (= x11 x51)))
(assert (not (= x11 (_ bv2 8))))
(assert (not (= x11 x71)))
(assert (not (= x11 x81)))
(assert (not (= x21 x31)))
(assert (not (= x21 (_ bv3 8))))
(assert (not (= x21 x51)))
(assert (not (= x21 (_ bv2 8))))
(assert (not (= x21 x71)))
(assert (not (= x21 x81)))
(assert (not (= x31 (_ bv3 8))))
(assert (not (= x31 x51)))
(assert (not (= x31 (_ bv2 8))))
(assert (not (= x31 x71)))
(assert (not (= x31 x81)))
(assert (not (= (_ bv3 8) x51)))
(assert (not (= (_ bv3 8) (_ bv2 8))))
(assert (not (= (_ bv3 8) x71)))
(assert (not (= (_ bv3 8) x81)))
(assert (not (= x51 (_ bv2 8))))
(assert (not (= x51 x71)))
(assert (not (= x51 x81)))
(assert (not (= (_ bv2 8) x71)))
(assert (not (= (_ bv2 8) x81)))
(assert (not (= x71 x81)))
(assert (not (= x02 (_ bv1 8))))
(assert (not (= x02 (_ bv8 8))))
(assert (not (= x02 x32)))
(assert (not (= x02 x42)))
(assert (not (= x02 x52)))
(assert (not (= x02 x62)))
(assert (not (= x02 (_ bv4 8))))
(assert (not (= x02 x82)))
(assert (not (= (_ bv1 8) (_ bv8 8))))
(assert (not (= (_ bv1 8) x32)))
(assert (not (= (_ bv1 8) x42)))
(assert (not (= (_ bv1 8) x52)))
(assert (not (= (_ bv1 8) x62)))
(assert (not (= (_ bv1 8) (_ bv4 8))))
(assert (not (= (_ bv1 8) x82)))
(assert (not (= (_ bv8 8) x32)))
(assert (not (= (_ bv8 8) x42)))
(assert (not (= (_ bv8 8) x52)))
(assert (not (= (_ bv8 8) x62)))
(assert (not (= (_ bv8 8) (_ bv4 8))))
(assert (not (= (_ bv8 8) x82)))
(assert (not (= x32 x42)))
(assert (not (= x32 x52)))
(assert (not (= x32 x62)))
(assert (not (= x32 (_ bv4 8))))
(assert (not (= x32 x82)))
(assert (not (= x42 x52)))
(assert (not (= x42 x62)))
(assert (not (= x42 (_ bv4 8))))
(assert (not (= x42 x82)))
(assert (not (= x52 x62)))
(assert (not (= x52 (_ bv4 8))))
(assert (not (= x52 x82)))
(assert (not (= x62 (_ bv4 8))))
(assert (not (= x62 x82)))
(assert (not (= (_ bv4 8) x82)))
(assert (not (= x03 (_ bv5 8))))
(assert (not (= x03 x23)))
(assert (not (= x03 (_ bv8 8))))
(assert (not (= x03 x43)))
(assert (not (= x03 x53)))
(assert (not (= x03 x63)))
(assert (not (= x03 (_ bv6 8))))
(assert (not (= x03 x83)))
(assert (not (= (_ bv5 8) x23)))
(assert (not (= (_ bv5 8) (_ bv8 8))))
(assert (not (= (_ bv5 8) x43)))
(assert (not (= (_ bv5 8) x53)))
(assert (not (= (_ bv5 8) x63)))
(assert (not (= (_ bv5 8) (_ bv6 8))))
(assert (not (= (_ bv5 8) x83)))
(assert (not (= x23 (_ bv8 8))))
(assert (not (= x23 x43)))
(assert (not (= x23 x53)))
(assert (not (= x23 x63)))
(assert (not (= x23 (_ bv6 8))))
(assert (not (= x23 x83)))
(assert (not (= (_ bv8 8) x43)))
(assert (not (= (_ bv8 8) x53)))
(assert (not (= (_ bv8 8) x63)))
(assert (not (= (_ bv8 8) (_ bv6 8))))
(assert (not (= (_ bv8 8) x83)))
(assert (not (= x43 x53)))
(assert (not (= x43 x63)))
(assert (not (= x43 (_ bv6 8))))
(assert (not (= x43 x83)))
(assert (not (= x53 x63)))
(assert (not (= x53 (_ bv6 8))))
(assert (not (= x53 x83)))
(assert (not (= x63 (_ bv6 8))))
(assert (not (= x63 x83)))
(assert (not (= (_ bv6 8) x83)))
(assert (not (= (_ bv2 8) x14)))
(assert (not (= (_ bv2 8) x24)))
(assert (not (= (_ bv2 8) x34)))
(assert (not (= (_ bv2 8) x44)))
(assert (not (= (_ bv2 8) (_ bv7 8))))
(assert (not (= (_ bv2 8) x64)))
(assert (not (= (_ bv2 8) (_ bv5 8))))
(assert (not (= (_ bv2 8) (_ bv9 8))))
(assert (not (= x14 x24)))
(assert (not (= x14 x34)))
(assert (not (= x14 x44)))
(assert (not (= x14 (_ bv7 8))))
(assert (not (= x14 x64)))
(assert (not (= x14 (_ bv5 8))))
(assert (not (= x14 (_ bv9 8))))
(assert (not (= x24 x34)))
(assert (not (= x24 x44)))
(assert (not (= x24 (_ bv7 8))))
(assert (not (= x24 x64)))
(assert (not (= x24 (_ bv5 8))))
(assert (not (= x24 (_ bv9 8))))
(assert (not (= x34 x44)))
(assert (not (= x34 (_ bv7 8))))
(assert (not (= x34 x64)))
(assert (not (= x34 (_ bv5 8))))
(assert (not (= x34 (_ bv9 8))))
(assert (not (= x44 (_ bv7 8))))
(assert (not (= x44 x64)))
(assert (not (= x44 (_ bv5 8))))
(assert (not (= x44 (_ bv9 8))))
(assert (not (= (_ bv7 8) x64)))
(assert (not (= (_ bv7 8) (_ bv5 8))))
(assert (not (= (_ bv7 8) (_ bv9 8))))
(assert (not (= x64 (_ bv5 8))))
(assert (not (= x64 (_ bv9 8))))
(assert (not (= (_ bv5 8) (_ bv9 8))))
(assert (not (= x05 x15)))
(assert (not (= x05 x25)))
(assert (not (= x05 (_ bv3 8))))
(assert (not (= x05 (_ bv9 8))))
(assert (not (= x05 x55)))
(assert (not (= x05 (_ bv1 8))))
(assert (not (= x05 x75)))
(assert (not (= x05 (_ bv4 8))))
(assert (not (= x15 x25)))
(assert (not (= x15 (_ bv3 8))))
(assert (not (= x15 (_ bv9 8))))
(assert (not (= x15 x55)))
(assert (not (= x15 (_ bv1 8))))
(assert (not (= x15 x75)))
(assert (not (= x15 (_ bv4 8))))
(assert (not (= x25 (_ bv3 8))))
(assert (not (= x25 (_ bv9 8))))
(assert (not (= x25 x55)))
(assert (not (= x25 (_ bv1 8))))
(assert (not (= x25 x75)))
(assert (not (= x25 (_ bv4 8))))
(assert (not (= (_ bv3 8) (_ bv9 8))))
(assert (not (= (_ bv3 8) x55)))
(assert (not (= (_ bv3 8) (_ bv1 8))))
(assert (not (= (_ bv3 8) x75)))
(assert (not (= (_ bv3 8) (_ bv4 8))))
(assert (not (= (_ bv9 8) x55)))
(assert (not (= (_ bv9 8) (_ bv1 8))))
(assert (not (= (_ bv9 8) x75)))
(assert (not (= (_ bv9 8) (_ bv4 8))))
(assert (not (= x55 (_ bv1 8))))
(assert (not (= x55 x75)))
(assert (not (= x55 (_ bv4 8))))
(assert (not (= (_ bv1 8) x75)))
(assert (not (= (_ bv1 8) (_ bv4 8))))
(assert (not (= x75 (_ bv4 8))))
(assert (not (= x06 (_ bv4 8))))
(assert (not (= x06 (_ bv5 8))))
(assert (not (= x06 (_ bv7 8))))
(assert (not (= x06 (_ bv1 8))))
(assert (not (= x06 x56)))
(assert (not (= x06 x66)))
(assert (not (= x06 x76)))
(assert (not (= x06 (_ bv2 8))))
(assert (not (= (_ bv4 8) (_ bv5 8))))
(assert (not (= (_ bv4 8) (_ bv7 8))))
(assert (not (= (_ bv4 8) (_ bv1 8))))
(assert (not (= (_ bv4 8) x56)))
(assert (not (= (_ bv4 8) x66)))
(assert (not (= (_ bv4 8) x76)))
(assert (not (= (_ bv4 8) (_ bv2 8))))
(assert (not (= (_ bv5 8) (_ bv7 8))))
(assert (not (= (_ bv5 8) (_ bv1 8))))
(assert (not (= (_ bv5 8) x56)))
(assert (not (= (_ bv5 8) x66)))
(assert (not (= (_ bv5 8) x76)))
(assert (not (= (_ bv5 8) (_ bv2 8))))
(assert (not (= (_ bv7 8) (_ bv1 8))))
(assert (not (= (_ bv7 8) x56)))
(assert (not (= (_ bv7 8) x66)))
(assert (not (= (_ bv7 8) x76)))
(assert (not (= (_ bv7 8) (_ bv2 8))))
(assert (not (= (_ bv1 8) x56)))
(assert (not (= (_ bv1 8) x66)))
(assert (not (= (_ bv1 8) x76)))
(assert (not (= (_ bv1 8) (_ bv2 8))))
(assert (not (= x56 x66)))
(assert (not (= x56 x76)))
(assert (not (= x56 (_ bv2 8))))
(assert (not (= x66 x76)))
(assert (not (= x66 (_ bv2 8))))
(assert (not (= x76 (_ bv2 8))))
(assert (not (= x07 (_ bv6 8))))
(assert (not (= x07 (_ bv3 8))))
(assert (not (= x07 (_ bv9 8))))
(assert (not (= x07 (_ bv8 8))))
(assert (not (= x07 x57)))
(assert (not (= x07 x67)))
(assert (not (= x07 x77)))
(assert (not (= x07 x87)))
(assert (not (= (_ bv6 8) (_ bv3 8))))
(assert (not (= (_ bv6 8) (_ bv9 8))))
(assert (not (= (_ bv6 8) (_ bv8 8))))
(assert (not (= (_ bv6 8) x57)))
(assert (not (= (_ bv6 8) x67)))
(assert (not (= (_ bv6 8) x77)))
(assert (not (= (_ bv6 8) x87)))
(assert (not (= (_ bv3 8) (_ bv9 8))))
(assert (not (= (_ bv3 8) (_ bv8 8))))
(assert (not (= (_ bv3 8) x57)))
(assert (not (= (_ bv3 8) x67)))
(assert (not (= (_ bv3 8) x77)))
(assert (not (= (_ bv3 8) x87)))
(assert (not (= (_ bv9 8) (_ bv8 8))))
(assert (not (= (_ bv9 8) x57)))
(assert (not (= (_ bv9 8) x67)))
(assert (not (= (_ bv9 8) x77)))
(assert (not (= (_ bv9 8) x87)))
(assert (not (= (_ bv8 8) x57)))
(assert (not (= (_ bv8 8) x67)))
(assert (not (= (_ bv8 8) x77)))
(assert (not (= (_ bv8 8) x87)))
(assert (not (= x57 x67)))
(assert (not (= x57 x77)))
(assert (not (= x57 x87)))
(assert (not (= x67 x77)))
(assert (not (= x67 x87)))
(assert (not (= x77 x87)))
(assert (not (= x08 (_ bv7 8))))
(assert (not (= x08 x28)))
(assert (not (= x08 x38)))
(assert (not (= x08 x48)))
(assert (not (= x08 x58)))
(assert (not (= x08 (_ bv6 8))))
(assert (not (= x08 (_ bv9 8))))
(assert (not (= x08 (_ bv1 8))))
(assert (not (= (_ bv7 8) x28)))
(assert (not (= (_ bv7 8) x38)))
(assert (not (= (_ bv7 8) x48)))
(assert (not (= (_ bv7 8) x58)))
(assert (not (= (_ bv7 8) (_ bv6 8))))
(assert (not (= (_ bv7 8) (_ bv9 8))))
(assert (not (= (_ bv7 8) (_ bv1 8))))
(assert (not (= x28 x38)))
(assert (not (= x28 x48)))
(assert (not (= x28 x58)))
(assert (not (= x28 (_ bv6 8))))
(assert (not (= x28 (_ bv9 8))))
(assert (not (= x28 (_ bv1 8))))
(assert (not (= x38 x48)))
(assert (not (= x38 x58)))
(assert (not (= x38 (_ bv6 8))))
(assert (not (= x38 (_ bv9 8))))
(assert (not (= x38 (_ bv1 8))))
(assert (not (= x48 x58)))
(assert (not (= x48 (_ bv6 8))))
(assert (not (= x48 (_ bv9 8))))
(assert (not (= x48 (_ bv1 8))))
(assert (not (= x58 (_ bv6 8))))
(assert (not (= x58 (_ bv9 8))))
(assert (not (= x58 (_ bv1 8))))
(assert (not (= (_ bv6 8) (_ bv9 8))))
(assert (not (= (_ bv6 8) (_ bv1 8))))
(assert (not (= (_ bv9 8) (_ bv1 8))))
(assert (not (= (_ bv6 8) (_ bv5 8))))
(assert (not (= (_ bv6 8) x02)))
(assert (not (= (_ bv6 8) x10)))
(assert (not (= (_ bv6 8) x11)))
(assert (not (= (_ bv6 8) (_ bv1 8))))
(assert (not (= (_ bv6 8) x20)))
(assert (not (= (_ bv6 8) x21)))
(assert (not (= (_ bv6 8) (_ bv8 8))))
(assert (not (= (_ bv5 8) x02)))
(assert (not (= (_ bv5 8) x10)))
(assert (not (= (_ bv5 8) x11)))
(assert (not (= (_ bv5 8) (_ bv1 8))))
(assert (not (= (_ bv5 8) x20)))
(assert (not (= (_ bv5 8) x21)))
(assert (not (= (_ bv5 8) (_ bv8 8))))
(assert (not (= x02 x10)))
(assert (not (= x02 x11)))
(assert (not (= x02 (_ bv1 8))))
(assert (not (= x02 x20)))
(assert (not (= x02 x21)))
(assert (not (= x02 (_ bv8 8))))
(assert (not (= x10 x11)))
(assert (not (= x10 (_ bv1 8))))
(assert (not (= x10 x20)))
(assert (not (= x10 x21)))
(assert (not (= x10 (_ bv8 8))))
(assert (not (= x11 (_ bv1 8))))
(assert (not (= x11 x20)))
(assert (not (= x11 x21)))
(assert (not (= x11 (_ bv8 8))))
(assert (not (= (_ bv1 8) x20)))
(assert (not (= (_ bv1 8) x21)))
(assert (not (= (_ bv1 8) (_ bv8 8))))
(assert (not (= x20 x21)))
(assert (not (= x20 (_ bv8 8))))
(assert (not (= x21 (_ bv8 8))))
(assert (not (= x03 (_ bv2 8))))
(assert (not (= x03 x05)))
(assert (not (= x03 (_ bv5 8))))
(assert (not (= x03 x14)))
(assert (not (= x03 x15)))
(assert (not (= x03 x23)))
(assert (not (= x03 x24)))
(assert (not (= x03 x25)))
(assert (not (= (_ bv2 8) x05)))
(assert (not (= (_ bv2 8) (_ bv5 8))))
(assert (not (= (_ bv2 8) x14)))
(assert (not (= (_ bv2 8) x15)))
(assert (not (= (_ bv2 8) x23)))
(assert (not (= (_ bv2 8) x24)))
(assert (not (= (_ bv2 8) x25)))
(assert (not (= x05 (_ bv5 8))))
(assert (not (= x05 x14)))
(assert (not (= x05 x15)))
(assert (not (= x05 x23)))
(assert (not (= x05 x24)))
(assert (not (= x05 x25)))
(assert (not (= (_ bv5 8) x14)))
(assert (not (= (_ bv5 8) x15)))
(assert (not (= (_ bv5 8) x23)))
(assert (not (= (_ bv5 8) x24)))
(assert (not (= (_ bv5 8) x25)))
(assert (not (= x14 x15)))
(assert (not (= x14 x23)))
(assert (not (= x14 x24)))
(assert (not (= x14 x25)))
(assert (not (= x15 x23)))
(assert (not (= x15 x24)))
(assert (not (= x15 x25)))
(assert (not (= x23 x24)))
(assert (not (= x23 x25)))
(assert (not (= x24 x25)))
(assert (not (= x06 x07)))
(assert (not (= x06 x08)))
(assert (not (= x06 (_ bv4 8))))
(assert (not (= x06 (_ bv6 8))))
(assert (not (= x06 (_ bv7 8))))
(assert (not (= x06 (_ bv5 8))))
(assert (not (= x06 (_ bv3 8))))
(assert (not (= x06 x28)))
(assert (not (= x07 x08)))
(assert (not (= x07 (_ bv4 8))))
(assert (not (= x07 (_ bv6 8))))
(assert (not (= x07 (_ bv7 8))))
(assert (not (= x07 (_ bv5 8))))
(assert (not (= x07 (_ bv3 8))))
(assert (not (= x07 x28)))
(assert (not (= x08 (_ bv4 8))))
(assert (not (= x08 (_ bv6 8))))
(assert (not (= x08 (_ bv7 8))))
(assert (not (= x08 (_ bv5 8))))
(assert (not (= x08 (_ bv3 8))))
(assert (not (= x08 x28)))
(assert (not (= (_ bv4 8) (_ bv6 8))))
(assert (not (= (_ bv4 8) (_ bv7 8))))
(assert (not (= (_ bv4 8) (_ bv5 8))))
(assert (not (= (_ bv4 8) (_ bv3 8))))
(assert (not (= (_ bv4 8) x28)))
(assert (not (= (_ bv6 8) (_ bv7 8))))
(assert (not (= (_ bv6 8) (_ bv5 8))))
(assert (not (= (_ bv6 8) (_ bv3 8))))
(assert (not (= (_ bv6 8) x28)))
(assert (not (= (_ bv7 8) (_ bv5 8))))
(assert (not (= (_ bv7 8) (_ bv3 8))))
(assert (not (= (_ bv7 8) x28)))
(assert (not (= (_ bv5 8) (_ bv3 8))))
(assert (not (= (_ bv5 8) x28)))
(assert (not (= (_ bv3 8) x28)))
(assert (not (= (_ bv1 8) x31)))
(assert (not (= (_ bv1 8) x32)))
(assert (not (= (_ bv1 8) x40)))
(assert (not (= (_ bv1 8) (_ bv3 8))))
(assert (not (= (_ bv1 8) x42)))
(assert (not (= (_ bv1 8) x50)))
(assert (not (= (_ bv1 8) x51)))
(assert (not (= (_ bv1 8) x52)))
(assert (not (= x31 x32)))
(assert (not (= x31 x40)))
(assert (not (= x31 (_ bv3 8))))
(assert (not (= x31 x42)))
(assert (not (= x31 x50)))
(assert (not (= x31 x51)))
(assert (not (= x31 x52)))
(assert (not (= x32 x40)))
(assert (not (= x32 (_ bv3 8))))
(assert (not (= x32 x42)))
(assert (not (= x32 x50)))
(assert (not (= x32 x51)))
(assert (not (= x32 x52)))
(assert (not (= x40 (_ bv3 8))))
(assert (not (= x40 x42)))
(assert (not (= x40 x50)))
(assert (not (= x40 x51)))
(assert (not (= x40 x52)))
(assert (not (= (_ bv3 8) x42)))
(assert (not (= (_ bv3 8) x50)))
(assert (not (= (_ bv3 8) x51)))
(assert (not (= (_ bv3 8) x52)))
(assert (not (= x42 x50)))
(assert (not (= x42 x51)))
(assert (not (= x42 x52)))
(assert (not (= x50 x51)))
(assert (not (= x50 x52)))
(assert (not (= x51 x52)))
(assert (not (= (_ bv8 8) x34)))
(assert (not (= (_ bv8 8) (_ bv3 8))))
(assert (not (= (_ bv8 8) x43)))
(assert (not (= (_ bv8 8) x44)))
(assert (not (= (_ bv8 8) (_ bv9 8))))
(assert (not (= (_ bv8 8) x53)))
(assert (not (= (_ bv8 8) (_ bv7 8))))
(assert (not (= (_ bv8 8) x55)))
(assert (not (= x34 (_ bv3 8))))
(assert (not (= x34 x43)))
(assert (not (= x34 x44)))
(assert (not (= x34 (_ bv9 8))))
(assert (not (= x34 x53)))
(assert (not (= x34 (_ bv7 8))))
(assert (not (= x34 x55)))
(assert (not (= (_ bv3 8) x43)))
(assert (not (= (_ bv3 8) x44)))
(assert (not (= (_ bv3 8) (_ bv9 8))))
(assert (not (= (_ bv3 8) x53)))
(assert (not (= (_ bv3 8) (_ bv7 8))))
(assert (not (= (_ bv3 8) x55)))
(assert (not (= x43 x44)))
(assert (not (= x43 (_ bv9 8))))
(assert (not (= x43 x53)))
(assert (not (= x43 (_ bv7 8))))
(assert (not (= x43 x55)))
(assert (not (= x44 (_ bv9 8))))
(assert (not (= x44 x53)))
(assert (not (= x44 (_ bv7 8))))
(assert (not (= x44 x55)))
(assert (not (= (_ bv9 8) x53)))
(assert (not (= (_ bv9 8) (_ bv7 8))))
(assert (not (= (_ bv9 8) x55)))
(assert (not (= x53 (_ bv7 8))))
(assert (not (= x53 x55)))
(assert (not (= (_ bv7 8) x55)))
(assert (not (= (_ bv7 8) (_ bv9 8))))
(assert (not (= (_ bv7 8) x38)))
(assert (not (= (_ bv7 8) (_ bv1 8))))
(assert (not (= (_ bv7 8) (_ bv8 8))))
(assert (not (= (_ bv7 8) x48)))
(assert (not (= (_ bv7 8) x56)))
(assert (not (= (_ bv7 8) x57)))
(assert (not (= (_ bv7 8) x58)))
(assert (not (= (_ bv9 8) x38)))
(assert (not (= (_ bv9 8) (_ bv1 8))))
(assert (not (= (_ bv9 8) (_ bv8 8))))
(assert (not (= (_ bv9 8) x48)))
(assert (not (= (_ bv9 8) x56)))
(assert (not (= (_ bv9 8) x57)))
(assert (not (= (_ bv9 8) x58)))
(assert (not (= x38 (_ bv1 8))))
(assert (not (= x38 (_ bv8 8))))
(assert (not (= x38 x48)))
(assert (not (= x38 x56)))
(assert (not (= x38 x57)))
(assert (not (= x38 x58)))
(assert (not (= (_ bv1 8) (_ bv8 8))))
(assert (not (= (_ bv1 8) x48)))
(assert (not (= (_ bv1 8) x56)))
(assert (not (= (_ bv1 8) x57)))
(assert (not (= (_ bv1 8) x58)))
(assert (not (= (_ bv8 8) x48)))
(assert (not (= (_ bv8 8) x56)))
(assert (not (= (_ bv8 8) x57)))
(assert (not (= (_ bv8 8) x58)))
(assert (not (= x48 x56)))
(assert (not (= x48 x57)))
(assert (not (= x48 x58)))
(assert (not (= x56 x57)))
(assert (not (= x56 x58)))
(assert (not (= x57 x58)))
(assert (not (= (_ bv9 8) (_ bv2 8))))
(assert (not (= (_ bv9 8) x62)))
(assert (not (= (_ bv9 8) x70)))
(assert (not (= (_ bv9 8) x71)))
(assert (not (= (_ bv9 8) (_ bv4 8))))
(assert (not (= (_ bv9 8) (_ bv7 8))))
(assert (not (= (_ bv9 8) x81)))
(assert (not (= (_ bv9 8) x82)))
(assert (not (= (_ bv2 8) x62)))
(assert (not (= (_ bv2 8) x70)))
(assert (not (= (_ bv2 8) x71)))
(assert (not (= (_ bv2 8) (_ bv4 8))))
(assert (not (= (_ bv2 8) (_ bv7 8))))
(assert (not (= (_ bv2 8) x81)))
(assert (not (= (_ bv2 8) x82)))
(assert (not (= x62 x70)))
(assert (not (= x62 x71)))
(assert (not (= x62 (_ bv4 8))))
(assert (not (= x62 (_ bv7 8))))
(assert (not (= x62 x81)))
(assert (not (= x62 x82)))
(assert (not (= x70 x71)))
(assert (not (= x70 (_ bv4 8))))
(assert (not (= x70 (_ bv7 8))))
(assert (not (= x70 x81)))
(assert (not (= x70 x82)))
(assert (not (= x71 (_ bv4 8))))
(assert (not (= x71 (_ bv7 8))))
(assert (not (= x71 x81)))
(assert (not (= x71 x82)))
(assert (not (= (_ bv4 8) (_ bv7 8))))
(assert (not (= (_ bv4 8) x81)))
(assert (not (= (_ bv4 8) x82)))
(assert (not (= (_ bv7 8) x81)))
(assert (not (= (_ bv7 8) x82)))
(assert (not (= x81 x82)))
(assert (not (= x63 x64)))
(assert (not (= x63 (_ bv1 8))))
(assert (not (= x63 (_ bv6 8))))
(assert (not (= x63 (_ bv5 8))))
(assert (not (= x63 x75)))
(assert (not (= x63 x83)))
(assert (not (= x63 (_ bv9 8))))
(assert (not (= x63 (_ bv4 8))))
(assert (not (= x64 (_ bv1 8))))
(assert (not (= x64 (_ bv6 8))))
(assert (not (= x64 (_ bv5 8))))
(assert (not (= x64 x75)))
(assert (not (= x64 x83)))
(assert (not (= x64 (_ bv9 8))))
(assert (not (= x64 (_ bv4 8))))
(assert (not (= (_ bv1 8) (_ bv6 8))))
(assert (not (= (_ bv1 8) (_ bv5 8))))
(assert (not (= (_ bv1 8) x75)))
(assert (not (= (_ bv1 8) x83)))
(assert (not (= (_ bv1 8) (_ bv9 8))))
(assert (not (= (_ bv1 8) (_ bv4 8))))
(assert (not (= (_ bv6 8) (_ bv5 8))))
(assert (not (= (_ bv6 8) x75)))
(assert (not (= (_ bv6 8) x83)))
(assert (not (= (_ bv6 8) (_ bv9 8))))
(assert (not (= (_ bv6 8) (_ bv4 8))))
(assert (not (= (_ bv5 8) x75)))
(assert (not (= (_ bv5 8) x83)))
(assert (not (= (_ bv5 8) (_ bv9 8))))
(assert (not (= (_ bv5 8) (_ bv4 8))))
(assert (not (= x75 x83)))
(assert (not (= x75 (_ bv9 8))))
(assert (not (= x75 (_ bv4 8))))
(assert (not (= x83 (_ bv9 8))))
(assert (not (= x83 (_ bv4 8))))
(assert (not (= (_ bv9 8) (_ bv4 8))))
(assert (not (= x66 x67)))
(assert (not (= x66 (_ bv6 8))))
(assert (not (= x66 x76)))
(assert (not (= x66 x77)))
(assert (not (= x66 (_ bv9 8))))
(assert (not (= x66 (_ bv2 8))))
(assert (not (= x66 x87)))
(assert (not (= x66 (_ bv1 8))))
(assert (not (= x67 (_ bv6 8))))
(assert (not (= x67 x76)))
(assert (not (= x67 x77)))
(assert (not (= x67 (_ bv9 8))))
(assert (not (= x67 (_ bv2 8))))
(assert (not (= x67 x87)))
(assert (not (= x67 (_ bv1 8))))
(assert (not (= (_ bv6 8) x76)))
(assert (not (= (_ bv6 8) x77)))
(assert (not (= (_ bv6 8) (_ bv9 8))))
(assert (not (= (_ bv6 8) (_ bv2 8))))
(assert (not (= (_ bv6 8) x87)))
(assert (not (= (_ bv6 8) (_ bv1 8))))
(assert (not (= x76 x77)))
(assert (not (= x76 (_ bv9 8))))
(assert (not (= x76 (_ bv2 8))))
(assert (not (= x76 x87)))
(assert (not (= x76 (_ bv1 8))))
(assert (not (= x77 (_ bv9 8))))
(assert (not (= x77 (_ bv2 8))))
(assert (not (= x77 x87)))
(assert (not (= x77 (_ bv1 8))))
(assert (not (= (_ bv9 8) (_ bv2 8))))
(assert (not (= (_ bv9 8) x87)))
(assert (not (= (_ bv9 8) (_ bv1 8))))
(assert (not (= (_ bv2 8) x87)))
(assert (not (= (_ bv2 8) (_ bv1 8))))
(assert (not (= x87 (_ bv1 8))))
(check-sat)
(exit)
